Version identifier: 20.1.0.0 | 2020-11-10 | 9bedb6d68
Found incumbent of value 0.000000 after 0.00 sec. (0.00 ticks)
Tried aggregator 2 times.
MIP Presolve eliminated 93 rows and 22 columns.
MIP Presolve modified 5 coefficients.
Aggregator did 22 substitutions.
Reduced MIP has 57 rows, 60 columns, and 143 nonzeros.
Reduced MIP has 36 binaries, 0 generals, 0 SOSs, and 17 indicators.
Presolve time = 0.00 sec. (0.26 ticks)
Probing fixed 0 vars, tightened 12 bounds.
Probing changed sense of 12 constraints.
Probing time = 0.00 sec. (0.08 ticks)
Cover probing fixed 0 vars, tightened 2 bounds.
Tried aggregator 2 times.
MIP Presolve eliminated 55 rows and 58 columns.
MIP Presolve modified 23 coefficients.
Aggregator did 2 substitutions.
All rows and columns eliminated.
Presolve time = 0.00 sec. (0.09 ticks)

Root node processing (before b&c):
  Real time             =    0.00 sec. (1.44 ticks)
Parallel b&c, 10 threads:
  Real time             =    0.00 sec. (0.00 ticks)
  Sync time (average)   =    0.00 sec.
  Wait time (average)   =    0.00 sec.
                          ------------
Total (root+branch&cut) =    0.00 sec. (1.44 ticks)
